NAME F-JSSP-SDST
ROWS
 N  OBJ
 E  c0      
 E  c1      
 E  c2      
 E  c3      
 E  c4      
 E  c5      
 G  c6      
 G  c7      
 G  c8      
 G  c9      
 G  c10     
 G  c11     
 G  c12     
 L  c13     
 L  c14     
 L  c15     
 L  c16     
 L  c17     
 L  c18     
 L  c19     
 L  c20     
 L  c21     
 L  c22     
 G  c23     
 G  c24     
 G  c25     
 G  c26     
 G  c27     
 G  c28     
 G  c29     
 G  c30     
 G  c31     
 G  c32     
 G  c33     
 G  c34     
 G  c35     
 G  c36     
 G  c37     
 G  c38     
 G  c39     
 G  c40     
 G  c41     
 G  c42     
 G  c43     
 G  c44     
 G  c45     
 G  c46     
 G  c47     
 G  c48     
 G  c49     
 G  c50     
 G  c51     
 G  c52     
 G  c53     
 G  c54     
 G  c55     
 G  c56     
 G  c57     
 G  c58     
 G  c59     
 G  c60     
 G  c61     
 G  c62     
 G  c63     
 G  c64     
 G  c65     
 G  c66     
 G  c67     
 G  c68     
 G  c69     
 G  c70     
 G  c71     
 G  c72     
 G  c73     
 G  c74     
 G  c75     
 G  c76     
 G  c77     
 G  c78     
 G  c79     
 G  c80     
 G  c81     
 G  c82     
 E  c83     
COLUMNS
    MARKER    'MARKER'                 'INTORG'
    B0(15)    c0        1
    B0(15)    c6        -43
    B0(15)    c7        -1000000043
    B0(15)    c13       -1000000000
    B0(15)    c23       -1000000000
    B0(15)    c24       -1000000000
    B0(15)    c25       -1000000000
    B0(15)    c26       -1000000000
    B0(15)    c27       -1000000000
    B0(15)    c28       -1000000000
    B0(15)    c29       -1000000000
    B0(15)    c30       -1000000000
    B0(15)    c31       -1000000000
    B0(15)    c32       -1000000000
    B0(15)    c63       -12
    B1(15)    c1        1
    B1(15)    c7        -1000000000
    B1(15)    c14       -1000000000
    B1(15)    c23       -1000000000
    B1(15)    c24       -1000000000
    B1(15)    c31       -1000000000
    B1(15)    c32       -1000000000
    B1(15)    c33       -1000000000
    B1(15)    c34       -1000000000
    B1(15)    c39       -1000000000
    B1(15)    c40       -1000000000
    B1(15)    c43       -1000000000
    B1(15)    c44       -1000000000
    B1(15)    c65       -12
    B1(15)    c83       -87
    B2(12)    c1        1
    B2(12)    c15       -1000000000
    B2(12)    c35       -1000000000
    B2(12)    c36       -1000000000
    B2(12)    c37       -1000000000
    B2(12)    c38       -1000000000
    B2(12)    c41       -1000000000
    B2(12)    c42       -1000000000
    B2(12)    c45       -1000000000
    B2(12)    c46       -1000000000
    B2(12)    c67       -12
    B2(12)    c83       -95
    B3(12)    c2        1
    B3(12)    c8        -63
    B3(12)    c9        -63
    B3(12)    c16       -1000000000
    B3(12)    c25       -1000000000
    B3(12)    c26       -1000000000
    B3(12)    c33       -1000000000
    B3(12)    c34       -1000000000
    B3(12)    c49       -1000000000
    B3(12)    c50       -1000000000
    B3(12)    c53       -1000000000
    B3(12)    c54       -1000000000
    B4(14)    c2        1
    B4(14)    c8        -53
    B4(14)    c9        -1000000053
    B4(14)    c17       -1000000000
    B4(14)    c35       -1000000000
    B4(14)    c36       -1000000000
    B4(14)    c47       -1000000000
    B4(14)    c48       -1000000000
    B4(14)    c51       -1000000000
    B4(14)    c52       -1000000000
    B4(14)    c55       -1000000000
    B4(14)    c56       -1000000000
    B4(14)    c57       -1000000000
    B4(14)    c58       -1000000000
    B5(14)    c3        1
    B5(14)    c9        -1000000000
    B5(14)    c18       -1000000000
    B5(14)    c37       -1000000000
    B5(14)    c38       -1000000000
    B5(14)    c47       -1000000000
    B5(14)    c48       -1000000000
    B5(14)    c57       -1000000000
    B5(14)    c58       -1000000000
    B5(14)    c59       -1000000000
    B5(14)    c60       -1000000000
    B5(14)    c61       -1000000000
    B5(14)    c62       -1000000000
    B5(14)    c83       -73
    B6(12)    c4        1
    B6(12)    c10       -125
    B6(12)    c11       -1000000125
    B6(12)    c12       -125
    B6(12)    c19       -1000000000
    B6(12)    c27       -1000000000
    B6(12)    c28       -1000000000
    B6(12)    c39       -1000000000
    B6(12)    c40       -1000000000
    B6(12)    c49       -1000000000
    B6(12)    c50       -1000000000
    B6(12)    c75       -8
    B7(12)    c4        1
    B7(12)    c10       -135
    B7(12)    c11       -135
    B7(12)    c12       -1000000135
    B7(12)    c20       -1000000000
    B7(12)    c41       -1000000000
    B7(12)    c42       -1000000000
    B7(12)    c51       -1000000000
    B7(12)    c52       -1000000000
    B7(12)    c59       -1000000000
    B7(12)    c60       -1000000000
    B7(12)    c77       -8
    B8(11)    c5        1
    B8(11)    c11       -1000000000
    B8(11)    c21       -1000000000
    B8(11)    c29       -1000000000
    B8(11)    c30       -1000000000
    B8(11)    c43       -1000000000
    B8(11)    c44       -1000000000
    B8(11)    c53       -1000000000
    B8(11)    c54       -1000000000
    B8(11)    c79       -8
    B8(11)    c83       -43
    B9(11)    c5        1
    B9(11)    c12       -1000000000
    B9(11)    c22       -1000000000
    B9(11)    c45       -1000000000
    B9(11)    c46       -1000000000
    B9(11)    c55       -1000000000
    B9(11)    c56       -1000000000
    B9(11)    c61       -1000000000
    B9(11)    c62       -1000000000
    B9(11)    c81       -8
    B9(11)    c83       -61
    B10(0)    OBJ       0
    B11(2)    c23       -1000000000
    B11(2)    c24       1000000000
    B12(2)    c25       -1000000000
    B12(2)    c26       1000000000
    B13(0)    OBJ       0
    B14(2)    c27       -1000000000
    B14(2)    c28       1000000000
    B15(2)    c29       -1000000000
    B15(2)    c30       1000000000
    B16(2)    c31       -1000000000
    B16(2)    c32       1000000000
    B17(0)    OBJ       0
    B18(4)    c33       -1000000000
    B18(4)    c34       1000000000
    B18(4)    c35       -1000000000
    B18(4)    c36       1000000000
    B19(2)    c37       -1000000000
    B19(2)    c38       1000000000
    B20(4)    c39       -1000000000
    B20(4)    c40       1000000000
    B20(4)    c41       -1000000000
    B20(4)    c42       1000000000
    B21(4)    c43       -1000000000
    B21(4)    c44       1000000000
    B21(4)    c45       -1000000000
    B21(4)    c46       1000000000
    B22(0)    OBJ       0
    B23(0)    OBJ       0
    B24(0)    OBJ       0
    B25(2)    c47       -1000000000
    B25(2)    c48       1000000000
    B26(4)    c49       -1000000000
    B26(4)    c50       1000000000
    B26(4)    c51       -1000000000
    B26(4)    c52       1000000000
    B27(4)    c53       -1000000000
    B27(4)    c54       1000000000
    B27(4)    c55       -1000000000
    B27(4)    c56       1000000000
    B28(0)    OBJ       0
    B29(0)    OBJ       0
    B30(2)    c57       -1000000000
    B30(2)    c58       1000000000
    B31(0)    OBJ       0
    B32(2)    c59       -1000000000
    B32(2)    c60       1000000000
    B33(2)    c61       -1000000000
    B33(2)    c62       1000000000
    B34(0)    OBJ       0
    B35(0)    OBJ       0
    B36(0)    OBJ       0
    B37(0)    OBJ       0
    B38(0)    OBJ       0
    B39(0)    OBJ       0
    B40(0)    OBJ       0
    B41(0)    OBJ       0
    B42(0)    OBJ       0
    B43(0)    OBJ       0
    B44(0)    OBJ       0
    B45(0)    OBJ       0
    I46(15)   c6        -1
    I46(15)   c7        -1
    I46(15)   c13       1
    I46(15)   c23       1
    I46(15)   c24       -1
    I46(15)   c25       1
    I46(15)   c26       -1
    I46(15)   c27       1
    I46(15)   c28       -1
    I46(15)   c29       1
    I46(15)   c30       -1
    I46(15)   c31       -1
    I46(15)   c32       1
    I46(15)   c63       1
    I46(15)   c64       1
    I47(16)   c6        1
    I47(16)   c7        1
    I47(16)   c14       1
    I47(16)   c23       -1
    I47(16)   c24       1
    I47(16)   c31       1
    I47(16)   c32       -1
    I47(16)   c33       1
    I47(16)   c34       -1
    I47(16)   c39       1
    I47(16)   c40       -1
    I47(16)   c43       1
    I47(16)   c44       -1
    I47(16)   c65       1
    I47(16)   c66       1
    I47(16)   c83       -1
    I48(14)   c6        1
    I48(14)   c7        1
    I48(14)   c15       1
    I48(14)   c35       1
    I48(14)   c36       -1
    I48(14)   c37       1
    I48(14)   c38       -1
    I48(14)   c41       1
    I48(14)   c42       -1
    I48(14)   c45       1
    I48(14)   c46       -1
    I48(14)   c67       1
    I48(14)   c68       1
    I48(14)   c83       -1
    I49(13)   c8        -1
    I49(13)   c9        -1
    I49(13)   c16       1
    I49(13)   c25       -1
    I49(13)   c26       1
    I49(13)   c33       -1
    I49(13)   c34       1
    I49(13)   c49       1
    I49(13)   c50       -1
    I49(13)   c53       1
    I49(13)   c54       -1
    I49(13)   c69       1
    I49(13)   c70       1
    I50(15)   c8        -1
    I50(15)   c9        -1
    I50(15)   c17       1
    I50(15)   c35       -1
    I50(15)   c36       1
    I50(15)   c47       1
    I50(15)   c48       -1
    I50(15)   c51       1
    I50(15)   c52       -1
    I50(15)   c55       1
    I50(15)   c56       -1
    I50(15)   c57       -1
    I50(15)   c58       1
    I50(15)   c71       1
    I50(15)   c72       1
    I51(16)   c8        1
    I51(16)   c9        1
    I51(16)   c18       1
    I51(16)   c37       -1
    I51(16)   c38       1
    I51(16)   c47       -1
    I51(16)   c48       1
    I51(16)   c57       1
    I51(16)   c58       -1
    I51(16)   c59       1
    I51(16)   c60       -1
    I51(16)   c61       1
    I51(16)   c62       -1
    I51(16)   c73       1
    I51(16)   c74       1
    I51(16)   c83       -1
    I52(12)   c10       -1
    I52(12)   c11       -1
    I52(12)   c12       -1
    I52(12)   c19       1
    I52(12)   c27       -1
    I52(12)   c28       1
    I52(12)   c39       -1
    I52(12)   c40       1
    I52(12)   c49       -1
    I52(12)   c50       1
    I52(12)   c75       1
    I52(12)   c76       1
    I53(12)   c10       -1
    I53(12)   c11       -1
    I53(12)   c12       -1
    I53(12)   c20       1
    I53(12)   c41       -1
    I53(12)   c42       1
    I53(12)   c51       -1
    I53(12)   c52       1
    I53(12)   c59       -1
    I53(12)   c60       1
    I53(12)   c77       1
    I53(12)   c78       1
    I54(13)   c10       1
    I54(13)   c11       1
    I54(13)   c12       1
    I54(13)   c21       1
    I54(13)   c29       -1
    I54(13)   c30       1
    I54(13)   c43       -1
    I54(13)   c44       1
    I54(13)   c53       -1
    I54(13)   c54       1
    I54(13)   c79       1
    I54(13)   c80       1
    I54(13)   c83       -1
    I55(13)   c10       1
    I55(13)   c11       1
    I55(13)   c12       1
    I55(13)   c22       1
    I55(13)   c45       -1
    I55(13)   c46       1
    I55(13)   c55       -1
    I55(13)   c56       1
    I55(13)   c61       -1
    I55(13)   c62       1
    I55(13)   c81       1
    I55(13)   c82       1
    I55(13)   c83       -1
    I56(1)    OBJ       1
    I56(1)    c83       1
    MARKER    'MARKER'                 'INTEND'
RHS
    RHS1      c0        1
    RHS1      c1        1
    RHS1      c2        1
    RHS1      c3        1
    RHS1      c4        1
    RHS1      c5        1
    RHS1      c7        -1999999993
    RHS1      c9        -1999999993
    RHS1      c11       -1999999991
    RHS1      c12       -1999999991
    RHS1      c23       -2999999903
    RHS1      c24       -1999999950
    RHS1      c25       -2999999930
    RHS1      c26       -1999999948
    RHS1      c27       -2999999867
    RHS1      c28       -1999999949
    RHS1      c29       -2999999949
    RHS1      c30       -1999999950
    RHS1      c31       -2999999950
    RHS1      c32       -1999999903
    RHS1      c33       -2999999930
    RHS1      c34       -1999999905
    RHS1      c35       -2999999941
    RHS1      c36       -1999999896
    RHS1      c37       -2999999919
    RHS1      c38       -1999999899
    RHS1      c39       -2999999867
    RHS1      c40       -1999999903
    RHS1      c41       -2999999858
    RHS1      c42       -1999999896
    RHS1      c43       -2999999950
    RHS1      c44       -1999999906
    RHS1      c45       -2999999932
    RHS1      c46       -1999999899
    RHS1      c47       -2999999918
    RHS1      c48       -1999999940
    RHS1      c49       -2999999869
    RHS1      c50       -1999999930
    RHS1      c51       -2999999857
    RHS1      c52       -1999999940
    RHS1      c53       -2999999949
    RHS1      c54       -1999999930
    RHS1      c55       -2999999930
    RHS1      c56       -1999999941
    RHS1      c57       -2999999940
    RHS1      c58       -1999999918
    RHS1      c59       -2999999857
    RHS1      c60       -1999999920
    RHS1      c61       -2999999931
    RHS1      c62       -1999999920
BOUNDS
 BV BND1      B0(15)  
 BV BND1      B1(15)  
 BV BND1      B2(12)  
 BV BND1      B3(12)  
 BV BND1      B4(14)  
 BV BND1      B5(14)  
 BV BND1      B6(12)  
 BV BND1      B7(12)  
 BV BND1      B8(11)  
 BV BND1      B9(11)  
 BV BND1      B10(0)  
 BV BND1      B11(2)  
 BV BND1      B12(2)  
 BV BND1      B13(0)  
 BV BND1      B14(2)  
 BV BND1      B15(2)  
 BV BND1      B16(2)  
 BV BND1      B17(0)  
 BV BND1      B18(4)  
 BV BND1      B19(2)  
 BV BND1      B20(4)  
 BV BND1      B21(4)  
 BV BND1      B22(0)  
 BV BND1      B23(0)  
 BV BND1      B24(0)  
 BV BND1      B25(2)  
 BV BND1      B26(4)  
 BV BND1      B27(4)  
 BV BND1      B28(0)  
 BV BND1      B29(0)  
 BV BND1      B30(2)  
 BV BND1      B31(0)  
 BV BND1      B32(2)  
 BV BND1      B33(2)  
 BV BND1      B34(0)  
 BV BND1      B35(0)  
 BV BND1      B36(0)  
 BV BND1      B37(0)  
 BV BND1      B38(0)  
 BV BND1      B39(0)  
 BV BND1      B40(0)  
 BV BND1      B41(0)  
 BV BND1      B42(0)  
 BV BND1      B43(0)  
 BV BND1      B44(0)  
 BV BND1      B45(0)  
 LI BND1      I46(15)   0
 LI BND1      I47(16)   0
 LI BND1      I48(14)   0
 LI BND1      I49(13)   0
 LI BND1      I50(15)   0
 LI BND1      I51(16)   0
 LI BND1      I52(12)   0
 LI BND1      I53(12)   0
 LI BND1      I54(13)   0
 LI BND1      I55(13)   0
 LI BND1      I56(1)    0
ENDATA
